
<<< setup

Tried aggregator 1 time.
LP Presolve eliminated 102 rows and 73 columns.
Reduced LP has 2 rows, 15 columns, and 15 nonzeros.
Presolve time = 0.00 sec. (0.04 ticks)

Iteration log . . .
Iteration:     1   Dual objective     =          1052.046719
main returns 0

<<< main


<<< done

